unsat
(:max-memory          18.52
 :memory              18.42
 :nlsat-arith-var     2
 :nlsat-atoms         8
 :nlsat-bool-var      1
 :nlsat-clauses       8
 :nlsat-conflicts     1
 :nlsat-propagations  5
 :nlsat-stages        1
 :num-allocs          59751
 :rlimit-count        2914
 :solve-eqs-elim-vars 1
 :solve-eqs-steps     6
 :time                0.00
 :total-time          0.02)
